problems/csplib-prob015/SchursLemma-models/compact/O2/lingeling/model_1_1-3-12-solution000001.eprime-solution
language ESSENCE' 1.0

letting boxes_PartitionAsSet_ExplicitR2_Occurrence be
        [[false, false, true, true, false, false, false, true, true, true, false, false; int(1..12)],
         [false, true, false, false, false, true, true, false, false, false, true, true; int(1..12)],
         [true, false, false, false, true, false, false, false, false, false, false, false; int(1..12)]; int(1..3)]
