problems/csplib-prob015/SchursLemma-models/compact/O2/lingeling/model_1_1-3-12-solution000001.solution
language Essence 1.3

letting boxes be partition({1, 5}, {2, 6, 7, 11, 12}, {3, 4, 8, 9, 10})
